num_features = 51;
num_usage_limits = 3;
num_plans = 4;
num_addons = 4;

features = ["tasks","twoFactorAuthentication","payPerTaskForOverageTasks","auditLogs","staticIp","ownerAccess","samlSingleSignOn","userProvisioning","domainCapture","superAdmin","advancedAdminPermissions","appRestrictions","actionRestrictions","customDataRetention","observabilityAPI","analytics","annualTaskLimits","sharedAppConnections","sharedWorkspace","folderPermissions","approvalRequests","emailSupport","liveChat","premierSupport","designatedTechnicalSupport","zapierInterfaces","zapierTables","zapierChatbots","zaps","twoStepsZaps","multiStepZaps","visualEditor","aiPowerUps","customTestRecords","filters","paths","formatter","drafts","autoReplay","customizedErrorSettings","customizedPollingTime","floodProtectionSetting","versions","compareVersions","alerts","customActions","premiumApps","connectionsViaWebhooks","tablesPremium","interfacesPremium","chatBotsPremium"];
usage_limits = ["usersLimit","tasksLimit","pollingTimeThreshold"];
plans = ["FREE","PROFESSIONAL","TEAM","ENTERPRISE"];
addons = ["samlSingleSignOnAddOn","tablesPremiumAddOn","interfacesPremiumAddOn","chatBotsPremiumAddOn"];

plans_prices = [0,61.25,446.27,4462.7];
addons_prices = [100,100,100,100];

linked_features = array2d(USAGE_LIMITS, FEATURES, [
    % usersLimit
    0,0,0,0,0,0,0,0,0,0,0,0,0,0,0,0,0,0,0,0,0,0,0,0,0,0,0,0,0,0,0,0,0,0,0,0,0,0,0,0,0,0,0,0,0,0,0,0,0,0,0,
    % tasksLimit
    1,0,0,0,0,0,0,0,0,0,0,0,0,0,0,0,0,0,0,0,0,0,0,0,0,0,0,0,0,0,0,0,0,0,0,0,0,0,0,0,0,0,0,0,0,0,0,0,0,0,0,
    % pollingTimeThreshold
    1,0,0,0,0,0,0,0,0,0,0,0,0,0,0,0,0,0,0,0,0,0,0,0,0,0,0,0,1,0,0,0,0,0,0,0,0,0,0,0,0,0,0,0,0,0,0,0,0,0,0
]);

plans_features = array2d(PLANS, FEATURES, [
    % FREE
    1,1,0,0,0,0,0,0,0,0,0,0,0,0,0,0,0,0,0,0,0,0,0,0,0,1,1,1,1,1,0,1,1,1,0,0,0,1,0,0,0,0,0,0,0,1,0,0,0,0,0,
    % PROFESSIONAL
    1,1,1,0,0,0,0,0,0,0,0,0,0,0,0,0,0,0,0,0,0,1,1,0,0,1,1,1,1,1,1,1,1,1,1,1,1,1,1,1,1,1,1,0,0,1,1,1,0,0,0,
    % TEAM
    1,1,1,1,1,1,0,0,0,0,0,0,0,0,0,0,0,1,1,1,0,1,1,1,0,1,1,1,1,1,1,1,1,1,1,1,1,1,1,1,1,1,1,0,0,1,1,1,0,0,0,
    % ENTERPRISE
    1,1,1,1,1,1,1,1,1,1,1,1,1,1,1,1,1,1,1,1,1,1,1,1,1,1,1,1,1,1,1,1,1,1,1,1,1,1,1,1,1,1,1,1,1,1,1,1,0,0,0
]);
plans_usage_limits = array2d(PLANS, USAGE_LIMITS, [
    % FREE
    1,100,15,
    % PROFESSIONAL
    1,2000,2,
    % TEAM
    Infinity,50000,1,
    % ENTERPRISE
    Infinity,Infinity,1
]);

addons_features = array2d(ADDONS, FEATURES, [
    % samlSingleSignOnAddOn
    0,0,0,0,0,0,1,0,0,0,0,0,0,0,0,0,0,0,0,0,0,0,0,0,0,0,0,0,0,0,0,0,0,0,0,0,0,0,0,0,0,0,0,0,0,0,0,0,0,0,0,
    % tablesPremiumAddOn
    0,0,0,0,0,0,0,0,0,0,0,0,0,0,0,0,0,0,0,0,0,0,0,0,0,0,0,0,0,0,0,0,0,0,0,0,0,0,0,0,0,0,0,0,0,0,0,0,1,0,0,
    % interfacesPremiumAddOn
    0,0,0,0,0,0,0,0,0,0,0,0,0,0,0,0,0,0,0,0,0,0,0,0,0,0,0,0,0,0,0,0,0,0,0,0,0,0,0,0,0,0,0,0,0,0,0,0,0,1,0,
    % chatBotsPremiumAddOn
    0,0,0,0,0,0,0,0,0,0,0,0,0,0,0,0,0,0,0,0,0,0,0,0,0,0,0,0,0,0,0,0,0,0,0,0,0,0,0,0,0,0,0,0,0,0,0,0,0,0,1
]);
addons_usage_limits = array2d(ADDONS, USAGE_LIMITS, [
    % samlSingleSignOnAddOn
    0,0,0,
    % tablesPremiumAddOn
    0,0,0,
    % interfacesPremiumAddOn
    0,0,0,
    % chatBotsPremiumAddOn
    0,0,0
]);
addons_usage_limits_extensions = array2d(ADDONS, USAGE_LIMITS, [
    % samlSingleSignOnAddOn
    0,0,0,
    % tablesPremiumAddOn
    0,0,0,
    % interfacesPremiumAddOn
    0,0,0,
    % chatBotsPremiumAddOn
    0,0,0
]);
addons_available_for = array2d(ADDONS, PLANS, [
    % samlSingleSignOnAddOn
    0,0,1,0,
    % tablesPremiumAddOn
    1,1,1,1,
    % interfacesPremiumAddOn
    1,1,1,1,
    % chatBotsPremiumAddOn
    1,1,1,1
]);
addons_depends_on = array2d(ADDONS, ADDONS, [
    % samlSingleSignOnAddOn
    0,0,0,0,
    % tablesPremiumAddOn
    0,0,0,0,
    % interfacesPremiumAddOn
    0,0,0,0,
    % chatBotsPremiumAddOn
    0,0,0,0
]);
